(set-info :smt-lib-version 2.6)
(set-info :category "crafted")
(set-logic QF_FF)
(define-sort FF0 () (_ FiniteField 52435875175126190479447740508185965837690552500527637822603658699938581184513))
(declare-fun k () Bool)
(declare-fun a () Bool)
(declare-fun f () Bool)
(declare-fun i () Bool)
(declare-fun d () Bool)
(declare-fun c () Bool)
(declare-fun e () Bool)
(declare-fun l () Bool)
(declare-fun j () Bool)
(declare-fun h () Bool)
(declare-fun g () Bool)
(declare-fun b () Bool)
(declare-fun out () FF0)
(declare-fun _31 () FF0)
(declare-fun _10 () FF0)
(declare-fun _30 () FF0)
(declare-fun _17 () FF0)
(declare-fun _16 () FF0)
(declare-fun _29 () FF0)
(declare-fun _23 () FF0)
(declare-fun _22 () FF0)
(declare-fun _28 () FF0)
(declare-fun _11 () FF0)
(declare-fun _27 () FF0)
(declare-fun _9 () FF0)
(declare-fun _26 () FF0)
(declare-fun _7 () FF0)
(declare-fun _25 () FF0)
(declare-fun _6 () FF0)
(declare-fun _1 () FF0)
(declare-fun _3 () FF0)
(declare-fun _4 () FF0)
(declare-fun _2 () FF0)
(declare-fun _0 () FF0)
(declare-fun _8 () FF0)
(declare-fun _5 () FF0)
(assert 
  (let ((let0 k))
  (let ((let1 (not let0)))
  (let ((let2 a))
  (let ((let3 f))
  (let ((let4 i))
  (let ((let5 (ite let4 let3 let2)))
  (let ((let6 d))
  (let ((let7 c))
  (let ((let8 e))
  (let ((let9 (ite let8 let7 let6)))
  (let ((let10 l))
  (let ((let11 j))
  (let ((let12 h))
  (let ((let13 g))
  (let ((let14 b))
  (let ((let15 (and let14 let13 let12 let11 let10 let9 let5 let1)))
  (let ((let16 out))
  (let ((let17 (as ff1 FF0)))
  (let ((let18 (= let17 let16)))
  (let ((let19 (= let18 let15)))
  (let ((let20 (as ff0 FF0)))
  (let ((let21 (= let20 let16)))
  (let ((let22 (or let18 let21)))
  (let ((let23 (and let22 let19)))
  (let ((let24 _31))
  (let ((let25 (as ff52435875175126190479447740508185965837690552500527637822603658699938581184512 FF0)))
  (let ((let26 _10))
  (let ((let27 (ff.mul let26 let25)))
  (let ((let28 (ff.add let27 let17)))
  (let ((let29 _30))
  (let ((let30 (ff.mul let29 let28)))
  (let ((let31 (= let30 let24)))
  (let ((let32 _17))
  (let ((let33 _16))
  (let ((let34 (ff.add let33 let32)))
  (let ((let35 _29))
  (let ((let36 (ff.mul let35 let34)))
  (let ((let37 (= let36 let29)))
  (let ((let38 _23))
  (let ((let39 _22))
  (let ((let40 (ff.add let39 let38)))
  (let ((let41 _28))
  (let ((let42 (ff.mul let41 let40)))
  (let ((let43 (= let42 let35)))
  (let ((let44 _11))
  (let ((let45 _27))
  (let ((let46 (ff.mul let45 let44)))
  (let ((let47 (= let46 let41)))
  (let ((let48 _9))
  (let ((let49 _26))
  (let ((let50 (ff.mul let49 let48)))
  (let ((let51 (= let50 let45)))
  (let ((let52 _7))
  (let ((let53 _25))
  (let ((let54 (ff.mul let53 let52)))
  (let ((let55 (= let54 let49)))
  (let ((let56 _6))
  (let ((let57 _1))
  (let ((let58 (ff.mul let57 let56)))
  (let ((let59 (= let58 let53)))
  (let ((let60 _3))
  (let ((let61 _4))
  (let ((let62 (ff.mul let61 let25)))
  (let ((let63 (ff.add let62 let17)))
  (let ((let64 (ff.mul let63 let60)))
  (let ((let65 (= let64 let38)))
  (let ((let66 _2))
  (let ((let67 (ff.mul let61 let66)))
  (let ((let68 (= let67 let39)))
  (let ((let69 _0))
  (let ((let70 _8))
  (let ((let71 (ff.mul let70 let25)))
  (let ((let72 (ff.add let71 let17)))
  (let ((let73 (ff.mul let72 let69)))
  (let ((let74 (= let73 let32)))
  (let ((let75 _5))
  (let ((let76 (ff.mul let70 let75)))
  (let ((let77 (= let76 let33)))
  (let ((let78 (ff.mul let44 let44)))
  (let ((let79 (= let78 let44)))
  (let ((let80 (ff.mul let26 let26)))
  (let ((let81 (= let80 let26)))
  (let ((let82 (ff.mul let48 let48)))
  (let ((let83 (= let82 let48)))
  (let ((let84 (ff.mul let70 let70)))
  (let ((let85 (= let84 let70)))
  (let ((let86 (ff.mul let52 let52)))
  (let ((let87 (= let86 let52)))
  (let ((let88 (ff.mul let56 let56)))
  (let ((let89 (= let88 let56)))
  (let ((let90 (ff.mul let75 let75)))
  (let ((let91 (= let90 let75)))
  (let ((let92 (ff.mul let61 let61)))
  (let ((let93 (= let92 let61)))
  (let ((let94 (ff.mul let60 let60)))
  (let ((let95 (= let94 let60)))
  (let ((let96 (ff.mul let66 let66)))
  (let ((let97 (= let96 let66)))
  (let ((let98 (ff.mul let57 let57)))
  (let ((let99 (= let98 let57)))
  (let ((let100 (ff.mul let69 let69)))
  (let ((let101 (= let100 let69)))
  (let ((let102 (and let101 let99 let97 let95 let93 let91 let89 let87 let85 let83 let81 let79 let77 let74 let68 let65 let59 let55 let51 let47 let43 let37 let31)))
  (let ((let103 (ite let11 let17 let20)))
  (let ((let104 (= let48 let103)))
  (let ((let105 (ite let0 let17 let20)))
  (let ((let106 (= let26 let105)))
  (let ((let107 (ite let4 let17 let20)))
  (let ((let108 (= let70 let107)))
  (let ((let109 (ite let3 let17 let20)))
  (let ((let110 (= let75 let109)))
  (let ((let111 (ite let7 let17 let20)))
  (let ((let112 (= let66 let111)))
  (let ((let113 (ite let14 let17 let20)))
  (let ((let114 (= let57 let113)))
  (let ((let115 (ite let10 let17 let20)))
  (let ((let116 (= let44 let115)))
  (let ((let117 (ite let13 let17 let20)))
  (let ((let118 (= let56 let117)))
  (let ((let119 (ite let12 let17 let20)))
  (let ((let120 (= let52 let119)))
  (let ((let121 (ite let8 let17 let20)))
  (let ((let122 (= let61 let121)))
  (let ((let123 (ite let6 let17 let20)))
  (let ((let124 (= let60 let123)))
  (let ((let125 (ite let2 let17 let20)))
  (let ((let126 (= let69 let125)))
  (let ((let127 (and let126 let124 let122 let120 let118 let116 let114 let112 let110 let108 let106 let104)))
  (let ((let128 (and let127 let102)))
  (let ((let129 (=> let128 let23)))
  (let ((let130 (not let129)))
  let130
)))))))))))))))))))))))))))))))))))))))))))))))))))))))))))))))))))))))))))))))))))))))))))))))))))))))))))))))))))))))))))))))))))
)
(check-sat)
